TCS_Benchmarks/redos_fix/corpus2_output_distinct_3766_3765_9_0.smt2
(set-logic QF_S)
(declare-const x String)
(assert (str.in.re x (re.inter  (re.++ (re.* (re.union (re.range "\u{00}" "\u{09}") (re.range "\u{0b}" "\u{0c}") (re.range "\u{0e}" "\u{84}") (re.range "\u{86}" "\u{ff}")) )  (re.union   (re.union (re.range "\u{41}" "\u{46}") (re.union (re.range "\u{61}" "\u{66}") (re.range "\u{30}" "\u{39}"))) (re.union  (re.++  (re.union (re.range "\u{41}" "\u{46}") (re.union (re.range "\u{61}" "\u{66}") (re.range "\u{30}" "\u{39}")))    (re.union (re.range "\u{41}" "\u{46}") (re.union (re.range "\u{61}" "\u{66}") (re.range "\u{30}" "\u{39}")))) (re.union  (re.++  (re.union (re.range "\u{41}" "\u{46}") (re.union (re.range "\u{61}" "\u{66}") (re.range "\u{30}" "\u{39}")))   (re.++  (re.union (re.range "\u{41}" "\u{46}") (re.union (re.range "\u{61}" "\u{66}") (re.range "\u{30}" "\u{39}")))    (re.union (re.range "\u{41}" "\u{46}") (re.union (re.range "\u{61}" "\u{66}") (re.range "\u{30}" "\u{39}"))))) (re.union  (re.++  (re.union (re.range "\u{41}" "\u{46}") (re.union (re.range "\u{61}" "\u{66}") (re.range "\u{30}" "\u{39}")))   (re.++  (re.union (re.range "\u{41}" "\u{46}") (re.union (re.range "\u{61}" "\u{66}") (re.range "\u{30}" "\u{39}")))   (re.++  (re.union (re.range "\u{41}" "\u{46}") (re.union (re.range "\u{61}" "\u{66}") (re.range "\u{30}" "\u{39}")))    (re.union (re.range "\u{41}" "\u{46}") (re.union (re.range "\u{61}" "\u{66}") (re.range "\u{30}" "\u{39}")))))) (re.union  (re.++  (re.union (re.range "\u{41}" "\u{46}") (re.union (re.range "\u{61}" "\u{66}") (re.range "\u{30}" "\u{39}")))   (re.++  (re.union (re.range "\u{41}" "\u{46}") (re.union (re.range "\u{61}" "\u{66}") (re.range "\u{30}" "\u{39}")))   (re.++  (re.union (re.range "\u{41}" "\u{46}") (re.union (re.range "\u{61}" "\u{66}") (re.range "\u{30}" "\u{39}")))   (re.++  (re.union (re.range "\u{41}" "\u{46}") (re.union (re.range "\u{61}" "\u{66}") (re.range "\u{30}" "\u{39}")))    (re.union (re.range "\u{41}" "\u{46}") (re.union (re.range "\u{61}" "\u{66}") (re.range "\u{30}" "\u{39}"))))))) (re.union  (re.++  (re.union (re.range "\u{41}" "\u{46}") (re.union (re.range "\u{61}" "\u{66}") (re.range "\u{30}" "\u{39}")))   (re.++  (re.union (re.range "\u{41}" "\u{46}") (re.union (re.range "\u{61}" "\u{66}") (re.range "\u{30}" "\u{39}")))   (re.++  (re.union (re.range "\u{41}" "\u{46}") (re.union (re.range "\u{61}" "\u{66}") (re.range "\u{30}" "\u{39}")))   (re.++  (re.union (re.range "\u{41}" "\u{46}") (re.union (re.range "\u{61}" "\u{66}") (re.range "\u{30}" "\u{39}")))   (re.++  (re.union (re.range "\u{41}" "\u{46}") (re.union (re.range "\u{61}" "\u{66}") (re.range "\u{30}" "\u{39}")))    (re.union (re.range "\u{41}" "\u{46}") (re.union (re.range "\u{61}" "\u{66}") (re.range "\u{30}" "\u{39}")))))))) (re.union  (re.++  (re.union (re.range "\u{41}" "\u{46}") (re.union (re.range "\u{61}" "\u{66}") (re.range "\u{30}" "\u{39}")))   (re.++  (re.union (re.range "\u{41}" "\u{46}") (re.union (re.range "\u{61}" "\u{66}") (re.range "\u{30}" "\u{39}")))   (re.++  (re.union (re.range "\u{41}" "\u{46}") (re.union (re.range "\u{61}" "\u{66}") (re.range "\u{30}" "\u{39}")))   (re.++  (re.union (re.range "\u{41}" "\u{46}") (re.union (re.range "\u{61}" "\u{66}") (re.range "\u{30}" "\u{39}")))   (re.++  (re.union (re.range "\u{41}" "\u{46}") (re.union (re.range "\u{61}" "\u{66}") (re.range "\u{30}" "\u{39}")))   (re.++  (re.union (re.range "\u{41}" "\u{46}") (re.union (re.range "\u{61}" "\u{66}") (re.range "\u{30}" "\u{39}")))    (re.union (re.range "\u{41}" "\u{46}") (re.union (re.range "\u{61}" "\u{66}") (re.range "\u{30}" "\u{39}")))))))))  (re.++  (re.union (re.range "\u{41}" "\u{46}") (re.union (re.range "\u{61}" "\u{66}") (re.range "\u{30}" "\u{39}")))   (re.++  (re.union (re.range "\u{41}" "\u{46}") (re.union (re.range "\u{61}" "\u{66}") (re.range "\u{30}" "\u{39}")))   (re.++  (re.union (re.range "\u{41}" "\u{46}") (re.union (re.range "\u{61}" "\u{66}") (re.range "\u{30}" "\u{39}")))   (re.++  (re.union (re.range "\u{41}" "\u{46}") (re.union (re.range "\u{61}" "\u{66}") (re.range "\u{30}" "\u{39}")))   (re.++  (re.union (re.range "\u{41}" "\u{46}") (re.union (re.range "\u{61}" "\u{66}") (re.range "\u{30}" "\u{39}")))   (re.++  (re.union (re.range "\u{41}" "\u{46}") (re.union (re.range "\u{61}" "\u{66}") (re.range "\u{30}" "\u{39}")))   (re.++  (re.union (re.range "\u{41}" "\u{46}") (re.union (re.range "\u{61}" "\u{66}") (re.range "\u{30}" "\u{39}")))    (re.union (re.range "\u{41}" "\u{46}") (re.union (re.range "\u{61}" "\u{66}") (re.range "\u{30}" "\u{39}"))))))))))))))))))  (re.++ (re.* (re.union (re.range "\u{00}" "\u{09}") (re.range "\u{0b}" "\u{0c}") (re.range "\u{0e}" "\u{84}") (re.range "\u{86}" "\u{ff}")) ) (re.++  (re.++ (re.opt  (str.to.re "\u{20}") ) (re.++  (str.to.re "\u{5b}") (re.++ (re.* (re.comp  (str.to.re "\u{20}")) ) (re.++  (str.to.re "\u{20}") (re.++  (str.to.re "\u{2b}") (re.++  (str.to.re "\u{30}")  (str.to.re "\u{78}")))))))  (re.union   (re.union (re.range "\u{41}" "\u{46}") (re.union (re.range "\u{61}" "\u{66}") (re.range "\u{30}" "\u{39}"))) (re.union  (re.++  (re.union (re.range "\u{41}" "\u{46}") (re.union (re.range "\u{61}" "\u{66}") (re.range "\u{30}" "\u{39}")))    (re.union (re.range "\u{41}" "\u{46}") (re.union (re.range "\u{61}" "\u{66}") (re.range "\u{30}" "\u{39}")))) (re.union  (re.++  (re.union (re.range "\u{41}" "\u{46}") (re.union (re.range "\u{61}" "\u{66}") (re.range "\u{30}" "\u{39}")))   (re.++  (re.union (re.range "\u{41}" "\u{46}") (re.union (re.range "\u{61}" "\u{66}") (re.range "\u{30}" "\u{39}")))    (re.union (re.range "\u{41}" "\u{46}") (re.union (re.range "\u{61}" "\u{66}") (re.range "\u{30}" "\u{39}"))))) (re.union  (re.++  (re.union (re.range "\u{41}" "\u{46}") (re.union (re.range "\u{61}" "\u{66}") (re.range "\u{30}" "\u{39}")))   (re.++  (re.union (re.range "\u{41}" "\u{46}") (re.union (re.range "\u{61}" "\u{66}") (re.range "\u{30}" "\u{39}")))   (re.++  (re.union (re.range "\u{41}" "\u{46}") (re.union (re.range "\u{61}" "\u{66}") (re.range "\u{30}" "\u{39}")))    (re.union (re.range "\u{41}" "\u{46}") (re.union (re.range "\u{61}" "\u{66}") (re.range "\u{30}" "\u{39}")))))) (re.union  (re.++  (re.union (re.range "\u{41}" "\u{46}") (re.union (re.range "\u{61}" "\u{66}") (re.range "\u{30}" "\u{39}")))   (re.++  (re.union (re.range "\u{41}" "\u{46}") (re.union (re.range "\u{61}" "\u{66}") (re.range "\u{30}" "\u{39}")))   (re.++  (re.union (re.range "\u{41}" "\u{46}") (re.union (re.range "\u{61}" "\u{66}") (re.range "\u{30}" "\u{39}")))   (re.++  (re.union (re.range "\u{41}" "\u{46}") (re.union (re.range "\u{61}" "\u{66}") (re.range "\u{30}" "\u{39}")))    (re.union (re.range "\u{41}" "\u{46}") (re.union (re.range "\u{61}" "\u{66}") (re.range "\u{30}" "\u{39}"))))))) (re.union  (re.++  (re.union (re.range "\u{41}" "\u{46}") (re.union (re.range "\u{61}" "\u{66}") (re.range "\u{30}" "\u{39}")))   (re.++  (re.union (re.range "\u{41}" "\u{46}") (re.union (re.range "\u{61}" "\u{66}") (re.range "\u{30}" "\u{39}")))   (re.++  (re.union (re.range "\u{41}" "\u{46}") (re.union (re.range "\u{61}" "\u{66}") (re.range "\u{30}" "\u{39}")))   (re.++  (re.union (re.range "\u{41}" "\u{46}") (re.union (re.range "\u{61}" "\u{66}") (re.range "\u{30}" "\u{39}")))   (re.++  (re.union (re.range "\u{41}" "\u{46}") (re.union (re.range "\u{61}" "\u{66}") (re.range "\u{30}" "\u{39}")))    (re.union (re.range "\u{41}" "\u{46}") (re.union (re.range "\u{61}" "\u{66}") (re.range "\u{30}" "\u{39}")))))))) (re.union  (re.++  (re.union (re.range "\u{41}" "\u{46}") (re.union (re.range "\u{61}" "\u{66}") (re.range "\u{30}" "\u{39}")))   (re.++  (re.union (re.range "\u{41}" "\u{46}") (re.union (re.range "\u{61}" "\u{66}") (re.range "\u{30}" "\u{39}")))   (re.++  (re.union (re.range "\u{41}" "\u{46}") (re.union (re.range "\u{61}" "\u{66}") (re.range "\u{30}" "\u{39}")))   (re.++  (re.union (re.range "\u{41}" "\u{46}") (re.union (re.range "\u{61}" "\u{66}") (re.range "\u{30}" "\u{39}")))   (re.++  (re.union (re.range "\u{41}" "\u{46}") (re.union (re.range "\u{61}" "\u{66}") (re.range "\u{30}" "\u{39}")))   (re.++  (re.union (re.range "\u{41}" "\u{46}") (re.union (re.range "\u{61}" "\u{66}") (re.range "\u{30}" "\u{39}")))    (re.union (re.range "\u{41}" "\u{46}") (re.union (re.range "\u{61}" "\u{66}") (re.range "\u{30}" "\u{39}")))))))))  (re.++  (re.union (re.range "\u{41}" "\u{46}") (re.union (re.range "\u{61}" "\u{66}") (re.range "\u{30}" "\u{39}")))   (re.++  (re.union (re.range "\u{41}" "\u{46}") (re.union (re.range "\u{61}" "\u{66}") (re.range "\u{30}" "\u{39}")))   (re.++  (re.union (re.range "\u{41}" "\u{46}") (re.union (re.range "\u{61}" "\u{66}") (re.range "\u{30}" "\u{39}")))   (re.++  (re.union (re.range "\u{41}" "\u{46}") (re.union (re.range "\u{61}" "\u{66}") (re.range "\u{30}" "\u{39}")))   (re.++  (re.union (re.range "\u{41}" "\u{46}") (re.union (re.range "\u{61}" "\u{66}") (re.range "\u{30}" "\u{39}")))   (re.++  (re.union (re.range "\u{41}" "\u{46}") (re.union (re.range "\u{61}" "\u{66}") (re.range "\u{30}" "\u{39}")))   (re.++  (re.union (re.range "\u{41}" "\u{46}") (re.union (re.range "\u{61}" "\u{66}") (re.range "\u{30}" "\u{39}")))    (re.union (re.range "\u{41}" "\u{46}") (re.union (re.range "\u{61}" "\u{66}") (re.range "\u{30}" "\u{39}"))))))))))))))))))) )))
(check-sat)
(get-model)