TCS_Benchmarks/redos_fix/corpus2_output_distinct_3766_3765_9_0.txt
(.*)([A-Fa-f0-9]{1,8})
(.*)( ?\[([^ ]*) \+0x)([A-Fa-f0-9]{1,8})